10
10
1010101
0
0
86 89 92 89 91 90 91 92 84 90 
1
0
99 93 96 97 97 100 95 94 89 98 
2
0
89 80 83 89 82 84 84 91 80 81 
3
0
86 93 95 96 95 96 88 86 96 91 
4
0
52 60 57 57 57 52 54 53 58 61 
5
0
16 14 9 9 19 9 9 14 11 12 
6
0
79 81 75 83 79 81 85 79 77 83 
7
0
82 83 80 87 90 83 82 84 80 83 
8
0
44 41 47 46 39 41 45 39 44 43 
9
0
50 55 52 57 54 48 56 53 50 49 
